WARNING: for repeatability, setting FPU to use double precision
============================[ Problem Statistics ]=============================
|                                                                             |
|  Number of variables:            50                                         |
|  Number of clauses:             218                                         |
|  Parse time:                   0.00 s                                       |
|                                                                             |
============================[ Search Statistics ]==============================
| Conflicts |          ORIGINAL         |          LEARNT          | Progress |
|           |    Vars  Clauses Literals |    Limit  Clauses Lit/Cl |          |
===============================================================================
===============================================================================
restarts              : 1
conflicts             : 28             (266667 /sec)
decisions             : 44             (0.00 % random) (419048 /sec)
propagations          : 409            (3895238 /sec)
conflict literals     : 119            (17.36 % deleted)
Memory used           : 20.00 MB
CPU time              : 0.000105 s

SATISFIABLE
